Route #1: 1 35 112 70 55 84 119 10 88 52 73 21 32 39 78 8 76 69 89 68 77 57 1 
Route #2: 1 56 92 90 87 3 16 80 31 118 36 58 12 113 82 41 81 60 95 4 100 37 1 
Route #3: 1 27 72 71 61 94 67 91 49 42 109 43 23 110 106 83 15 9 99 13 98 114 1 
Route #4: 1 59 22 63 105 101 108 66 46 97 86 65 74 28 18 17 103 75 117 5 85 53 1 
Route #5: 1 1 11 6 111 102 45 93 96 54 116 20 50 38 29 25 30 79 2 115 19 44 1 
Route #6: 1 24 51 104 47 26 7 48 14 33 107 62 34 40 64 1 

Cost 20618.8
Time 3.6095


 * Another infos *

 Iterations: 120 Time: 3.6095 sec - 0.0602 min - 0.0010 horas
0.0000 h 0.0602 min
Problem dimension: 120
